75
1 0 7
2 0 5
2 1 8
3 0 5
3 1 2
3 2 7
4 0 10
4 1 7
4 2 2
4 3 10
5 0 8
5 1 2
5 2 10
5 3 8
5 4 4
6 0 5
6 1 2
6 2 7
6 3 10
6 4 5
6 5 3
7 0 2
7 1 10
7 2 4
7 3 9
7 4 7
7 5 4
7 6 8
8 0 3
8 1 6
8 2 2
8 3 7
8 4 10
8 5 2
8 6 2
8 7 3
9 0 5
9 1 1
9 2 8
9 3 7
9 4 1
9 5 2
9 6 1
9 7 7
9 8 1
10 0 10
10 1 8
10 2 7
10 3 5
10 4 4
10 5 4
10 6 3
10 7 8
10 8 7
10 9 7
11 0 3
11 1 6
11 2 7
11 3 3
11 4 5
11 5 4
11 6 6
11 7 3
11 8 6
11 9 7
11 10 9
12 0 5
12 1 2
12 2 7
12 3 1
12 4 8
12 5 3
12 6 9
12 7 8
12 8 7
12 9 2
12 10 1
12 11 9
13 0 8
13 1 10
13 2 5
13 3 5
13 4 8
13 5 3
13 6 1
13 7 5
13 8 6
13 9 3
13 10 3
13 11 8
13 12 8
14 0 2
14 1 2
14 2 1
14 3 3
14 4 8
14 5 9
14 6 8
14 7 10
14 8 1
14 9 10
14 10 7
14 11 4
14 12 9
14 13 3
15 0 5
15 1 2
15 2 8
15 3 10
15 4 4
15 5 9
15 6 6
15 7 5
15 8 4
15 9 8
15 10 1
15 11 2
15 12 1
15 13 6
15 14 2
16 0 5
16 1 1
16 2 1
16 3 1
16 4 4
16 5 7
16 6 9
16 7 10
16 8 6
16 9 9
16 10 5
16 11 6
16 12 4
16 13 9
16 14 10
16 15 7
17 0 5
17 1 7
17 2 2
17 3 1
17 4 10
17 5 2
17 6 9
17 7 10
17 8 1
17 9 2
17 10 2
17 11 4
17 12 9
17 13 2
17 14 6
17 15 6
17 16 5
18 0 5
18 1 9
18 2 6
18 3 8
18 4 1
18 5 3
18 6 5
18 7 6
18 8 2
18 9 5
18 10 3
18 11 6
18 12 8
18 13 3
18 14 6
18 15 9
18 16 2
18 17 3
19 0 10
19 1 7
19 2 8
19 3 9
19 4 9
19 5 4
19 6 9
19 7 9
19 8 4
19 9 7
19 10 4
19 11 7
19 12 3
19 13 7
19 14 10
19 15 3
19 16 2
19 17 7
19 18 2
20 0 9
20 1 8
20 2 9
20 3 1
20 4 3
20 5 8
20 6 1
20 7 1
20 8 3
20 9 5
20 10 5
20 11 10
20 12 10
20 13 10
20 14 10
20 15 1
20 16 8
20 17 3
20 18 10
20 19 4
21 0 3
21 1 5
21 2 3
21 3 9
21 4 5
21 5 5
21 6 2
21 7 8
21 8 1
21 9 10
21 10 7
21 11 4
21 12 3
21 13 8
21 14 2
21 15 1
21 16 2
21 17 3
21 18 6
21 19 9
21 20 3
22 0 4
22 1 3
22 2 9
22 3 2
22 4 1
22 5 4
22 6 7
22 7 3
22 8 8
22 9 4
22 10 9
22 11 4
22 12 10
22 13 4
22 14 6
22 15 1
22 16 9
22 17 10
22 18 3
22 19 1
22 20 5
22 21 3
23 0 4
23 1 5
23 2 4
23 3 3
23 4 4
23 5 5
23 6 1
23 7 9
23 8 10
23 9 6
23 10 8
23 11 8
23 12 10
23 13 1
23 14 6
23 15 3
23 16 2
23 17 10
23 18 7
23 19 8
23 20 9
23 21 8
23 22 8
24 0 10
24 1 7
24 2 4
24 3 5
24 4 10
24 5 6
24 6 9
24 7 10
24 8 8
24 9 10
24 10 10
24 11 4
24 12 6
24 13 7
24 14 8
24 15 5
24 16 4
24 17 3
24 18 10
24 19 2
24 20 8
24 21 6
24 22 7
24 23 4
25 0 10
25 1 2
25 2 5
25 3 10
25 4 9
25 5 4
25 6 9
25 7 7
25 8 8
25 9 4
25 10 1
25 11 5
25 12 2
25 13 1
25 14 4
25 15 4
25 16 5
25 17 5
25 18 9
25 19 9
25 20 9
25 21 7
25 22 4
25 23 2
25 24 8
26 0 4
26 1 5
26 2 2
26 3 1
26 4 6
26 5 6
26 6 8
26 7 9
26 8 3
26 9 7
26 10 10
26 11 10
26 12 10
26 13 3
26 14 9
26 15 7
26 16 5
26 17 1
26 18 6
26 19 9
26 20 6
26 21 6
26 22 9
26 23 8
26 24 5
26 25 2
27 0 3
27 1 4
27 2 8
27 3 9
27 4 10
27 5 7
27 6 4
27 7 8
27 8 8
27 9 9
27 10 4
27 11 1
27 12 3
27 13 4
27 14 7
27 15 9
27 16 10
27 17 3
27 18 1
27 19 7
27 20 4
27 21 9
27 22 10
27 23 2
27 24 10
27 25 9
27 26 2
28 0 2
28 1 6
28 2 5
28 3 5
28 4 9
28 5 6
28 6 5
28 7 8
28 8 7
28 9 8
28 10 4
28 11 4
28 12 5
28 13 10
28 14 10
28 15 3
28 16 8
28 17 1
28 18 6
28 19 9
28 20 1
28 21 6
28 22 4
28 23 10
28 24 10
28 25 10
28 26 10
28 27 7
29 0 9
29 1 8
29 2 3
29 3 7
29 4 3
29 5 3
29 6 8
29 7 5
29 8 9
29 9 1
29 10 4
29 11 7
29 12 3
29 13 6
29 14 3
29 15 3
29 16 9
29 17 9
29 18 7
29 19 5
29 20 4
29 21 7
29 22 1
29 23 2
29 24 7
29 25 8
29 26 4
29 27 4
29 28 8
30 0 8
30 1 1
30 2 4
30 3 8
30 4 6
30 5 2
30 6 7
30 7 10
30 8 8
30 9 6
30 10 9
30 11 8
30 12 3
30 13 9
30 14 10
30 15 10
30 16 10
30 17 10
30 18 4
30 19 7
30 20 10
30 21 2
30 22 4
30 23 10
30 24 8
30 25 10
30 26 6
30 27 4
30 28 6
30 29 6
31 0 10
31 1 2
31 2 8
31 3 4
31 4 6
31 5 6
31 6 6
31 7 5
31 8 5
31 9 2
31 10 9
31 11 6
31 12 8
31 13 3
31 14 5
31 15 9
31 16 5
31 17 4
31 18 9
31 19 3
31 20 10
31 21 5
31 22 7
31 23 7
31 24 5
31 25 1
31 26 8
31 27 5
31 28 2
31 29 5
31 30 3
32 0 9
32 1 9
32 2 2
32 3 6
32 4 3
32 5 1
32 6 5
32 7 7
32 8 1
32 9 10
32 10 9
32 11 9
32 12 3
32 13 2
32 14 9
32 15 2
32 16 4
32 17 1
32 18 7
32 19 1
32 20 6
32 21 3
32 22 5
32 23 4
32 24 5
32 25 9
32 26 9
32 27 4
32 28 7
32 29 1
32 30 8
32 31 5
33 0 7
33 1 9
33 2 6
33 3 3
33 4 2
33 5 8
33 6 9
33 7 6
33 8 3
33 9 9
33 10 4
33 11 5
33 12 5
33 13 8
33 14 8
33 15 9
33 16 5
33 17 5
33 18 4
33 19 2
33 20 9
33 21 6
33 22 5
33 23 9
33 24 1
33 25 1
33 26 6
33 27 3
33 28 9
33 29 8
33 30 2
33 31 8
33 32 5
34 0 7
34 1 5
34 2 6
34 3 8
34 4 4
34 5 1
34 6 1
34 7 4
34 8 4
34 9 2
34 10 8
34 11 10
34 12 5
34 13 2
34 14 10
34 15 7
34 16 5
34 17 6
34 18 6
34 19 9
34 20 3
34 21 7
34 22 1
34 23 6
34 24 4
34 25 2
34 26 10
34 27 6
34 28 1
34 29 4
34 30 10
34 31 6
34 32 4
34 33 1
35 0 2
35 1 9
35 2 7
35 3 8
35 4 10
35 5 6
35 6 3
35 7 7
35 8 9
35 9 3
35 10 7
35 11 1
35 12 10
35 13 2
35 14 10
35 15 6
35 16 3
35 17 5
35 18 7
35 19 6
35 20 6
35 21 4
35 22 1
35 23 8
35 24 1
35 25 2
35 26 5
35 27 4
35 28 4
35 29 4
35 30 8
35 31 2
35 32 6
35 33 3
35 34 9
36 0 2
36 1 8
36 2 6
36 3 2
36 4 7
36 5 8
36 6 2
36 7 9
36 8 2
36 9 6
36 10 8
36 11 5
36 12 3
36 13 2
36 14 3
36 15 2
36 16 4
36 17 5
36 18 1
36 19 4
36 20 9
36 21 5
36 22 2
36 23 2
36 24 2
36 25 9
36 26 6
36 27 3
36 28 9
36 29 5
36 30 9
36 31 4
36 32 10
36 33 9
36 34 8
36 35 4
37 0 9
37 1 2
37 2 4
37 3 4
37 4 1
37 5 10
37 6 2
37 7 7
37 8 1
37 9 1
37 10 5
37 11 3
37 12 5
37 13 8
37 14 7
37 15 6
37 16 3
37 17 5
37 18 2
37 19 4
37 20 9
37 21 10
37 22 6
37 23 10
37 24 4
37 25 1
37 26 10
37 27 3
37 28 7
37 29 1
37 30 8
37 31 4
37 32 4
37 33 6
37 34 4
37 35 1
37 36 3
38 0 7
38 1 2
38 2 3
38 3 6
38 4 10
38 5 7
38 6 10
38 7 8
38 8 5
38 9 7
38 10 8
38 11 7
38 12 8
38 13 9
38 14 2
38 15 4
38 16 2
38 17 9
38 18 6
38 19 4
38 20 8
38 21 3
38 22 6
38 23 7
38 24 2
38 25 2
38 26 7
38 27 9
38 28 5
38 29 7
38 30 9
38 31 8
38 32 3
38 33 6
38 34 6
38 35 6
38 36 10
38 37 9
39 0 8
39 1 6
39 2 7
39 3 5
39 4 1
39 5 3
39 6 1
39 7 7
39 8 10
39 9 2
39 10 9
39 11 3
39 12 2
39 13 1
39 14 9
39 15 3
39 16 6
39 17 6
39 18 6
39 19 10
39 20 3
39 21 10
39 22 10
39 23 2
39 24 5
39 25 5
39 26 10
39 27 6
39 28 3
39 29 10
39 30 1
39 31 10
39 32 1
39 33 9
39 34 6
39 35 1
39 36 5
39 37 2
39 38 6
40 0 7
40 1 6
40 2 10
40 3 10
40 4 1
40 5 8
40 6 5
40 7 2
40 8 3
40 9 4
40 10 9
40 11 4
40 12 7
40 13 7
40 14 3
40 15 9
40 16 9
40 17 3
40 18 5
40 19 10
40 20 10
40 21 8
40 22 1
40 23 3
40 24 6
40 25 8
40 26 3
40 27 3
40 28 10
40 29 8
40 30 8
40 31 9
40 32 1
40 33 5
40 34 3
40 35 4
40 36 9
40 37 6
40 38 1
40 39 7
41 0 5
41 1 7
41 2 9
41 3 3
41 4 1
41 5 9
41 6 4
41 7 10
41 8 4
41 9 4
41 10 7
41 11 9
41 12 2
41 13 1
41 14 3
41 15 9
41 16 5
41 17 3
41 18 6
41 19 9
41 20 1
41 21 9
41 22 5
41 23 5
41 24 8
41 25 4
41 26 10
41 27 7
41 28 4
41 29 7
41 30 10
41 31 2
41 32 1
41 33 10
41 34 1
41 35 1
41 36 10
41 37 7
41 38 5
41 39 8
41 40 10
42 0 1
42 1 7
42 2 5
42 3 4
42 4 5
42 5 2
42 6 8
42 7 6
42 8 7
42 9 6
42 10 8
42 11 6
42 12 6
42 13 2
42 14 4
42 15 6
42 16 3
42 17 3
42 18 10
42 19 9
42 20 7
42 21 9
42 22 1
42 23 8
42 24 8
42 25 8
42 26 5
42 27 3
42 28 3
42 29 9
42 30 3
42 31 7
42 32 8
42 33 3
42 34 10
42 35 6
42 36 2
42 37 4
42 38 1
42 39 3
42 40 8
42 41 5
43 0 8
43 1 3
43 2 3
43 3 2
43 4 9
43 5 8
43 6 1
43 7 3
43 8 7
43 9 9
43 10 5
43 11 4
43 12 8
43 13 7
43 14 8
43 15 2
43 16 5
43 17 6
43 18 3
43 19 10
43 20 6
43 21 6
43 22 1
43 23 2
43 24 5
43 25 2
43 26 8
43 27 1
43 28 2
43 29 4
43 30 6
43 31 6
43 32 4
43 33 4
43 34 4
43 35 8
43 36 2
43 37 2
43 38 7
43 39 2
43 40 4
43 41 9
43 42 7
44 0 9
44 1 7
44 2 3
44 3 1
44 4 4
44 5 5
44 6 10
44 7 3
44 8 5
44 9 4
44 10 9
44 11 4
44 12 6
44 13 7
44 14 7
44 15 3
44 16 9
44 17 7
44 18 3
44 19 2
44 20 2
44 21 6
44 22 3
44 23 4
44 24 8
44 25 1
44 26 5
44 27 5
44 28 8
44 29 6
44 30 9
44 31 5
44 32 2
44 33 5
44 34 1
44 35 1
44 36 9
44 37 6
44 38 8
44 39 7
44 40 3
44 41 9
44 42 10
44 43 4
45 0 9
45 1 4
45 2 9
45 3 3
45 4 4
45 5 9
45 6 4
45 7 9
45 8 1
45 9 4
45 10 10
45 11 2
45 12 3
45 13 5
45 14 9
45 15 3
45 16 2
45 17 6
45 18 5
45 19 5
45 20 2
45 21 1
45 22 2
45 23 10
45 24 2
45 25 2
45 26 10
45 27 1
45 28 1
45 29 1
45 30 8
45 31 9
45 32 4
45 33 3
45 34 6
45 35 10
45 36 8
45 37 8
45 38 8
45 39 5
45 40 10
45 41 9
45 42 9
45 43 9
45 44 4
46 0 3
46 1 1
46 2 4
46 3 4
46 4 4
46 5 7
46 6 6
46 7 3
46 8 2
46 9 2
46 10 7
46 11 4
46 12 1
46 13 3
46 14 3
46 15 4
46 16 2
46 17 9
46 18 2
46 19 9
46 20 6
46 21 10
46 22 9
46 23 5
46 24 1
46 25 2
46 26 5
46 27 7
46 28 1
46 29 4
46 30 3
46 31 5
46 32 7
46 33 4
46 34 1
46 35 1
46 36 4
46 37 6
46 38 8
46 39 6
46 40 9
46 41 4
46 42 1
46 43 4
46 44 7
46 45 2
47 0 3
47 1 5
47 2 1
47 3 4
47 4 4
47 5 5
47 6 9
47 7 2
47 8 2
47 9 9
47 10 7
47 11 1
47 12 10
47 13 3
47 14 8
47 15 7
47 16 10
47 17 6
47 18 4
47 19 10
47 20 5
47 21 10
47 22 1
47 23 1
47 24 8
47 25 8
47 26 4
47 27 8
47 28 2
47 29 6
47 30 9
47 31 1
47 32 1
47 33 6
47 34 2
47 35 6
47 36 1
47 37 7
47 38 4
47 39 5
47 40 5
47 41 10
47 42 5
47 43 8
47 44 3
47 45 10
47 46 9
48 0 2
48 1 3
48 2 3
48 3 6
48 4 1
48 5 9
48 6 1
48 7 3
48 8 3
48 9 4
48 10 8
48 11 7
48 12 9
48 13 2
48 14 6
48 15 5
48 16 9
48 17 10
48 18 5
48 19 5
48 20 6
48 21 10
48 22 1
48 23 9
48 24 3
48 25 7
48 26 1
48 27 10
48 28 10
48 29 6
48 30 8
48 31 1
48 32 5
48 33 7
48 34 9
48 35 2
48 36 1
48 37 7
48 38 4
48 39 6
48 40 4
48 41 6
48 42 2
48 43 1
48 44 8
48 45 6
48 46 9
48 47 2
49 0 5
49 1 5
49 2 10
49 3 10
49 4 10
49 5 9
49 6 9
49 7 2
49 8 5
49 9 3
49 10 2
49 11 8
49 12 2
49 13 3
49 14 2
49 15 10
49 16 5
49 17 9
49 18 7
49 19 3
49 20 4
49 21 8
49 22 8
49 23 4
49 24 4
49 25 7
49 26 2
49 27 10
49 28 5
49 29 9
49 30 4
49 31 10
49 32 3
49 33 8
49 34 6
49 35 10
49 36 5
49 37 6
49 38 4
49 39 2
49 40 5
49 41 5
49 42 2
49 43 5
49 44 10
49 45 3
49 46 7
49 47 2
49 48 8
50 0 7
50 1 1
50 2 5
50 3 3
50 4 6
50 5 4
50 6 5
50 7 7
50 8 6
50 9 1
50 10 6
50 11 9
50 12 8
50 13 3
50 14 2
50 15 7
50 16 5
50 17 5
50 18 3
50 19 6
50 20 6
50 21 1
50 22 9
50 23 1
50 24 2
50 25 9
50 26 3
50 27 7
50 28 10
50 29 7
50 30 1
50 31 6
50 32 9
50 33 9
50 34 3
50 35 3
50 36 4
50 37 4
50 38 4
50 39 4
50 40 9
50 41 10
50 42 4
50 43 2
50 44 2
50 45 4
50 46 5
50 47 5
50 48 5
50 49 6
51 0 1
51 1 2
51 2 8
51 3 10
51 4 8
51 5 4
51 6 5
51 7 2
51 8 4
51 9 3
51 10 6
51 11 6
51 12 8
51 13 3
51 14 4
51 15 1
51 16 9
51 17 1
51 18 2
51 19 7
51 20 2
51 21 6
51 22 10
51 23 5
51 24 9
51 25 8
51 26 10
51 27 3
51 28 10
51 29 6
51 30 3
51 31 9
51 32 3
51 33 3
51 34 7
51 35 5
51 36 9
51 37 1
51 38 6
51 39 4
51 40 10
51 41 7
51 42 1
51 43 3
51 44 5
51 45 9
51 46 4
51 47 3
51 48 5
51 49 8
51 50 10
52 0 5
52 1 9
52 2 4
52 3 2
52 4 2
52 5 3
52 6 5
52 7 4
52 8 5
52 9 10
52 10 1
52 11 7
52 12 5
52 13 7
52 14 8
52 15 8
52 16 7
52 17 7
52 18 2
52 19 9
52 20 1
52 21 8
52 22 8
52 23 6
52 24 1
52 25 2
52 26 7
52 27 8
52 28 10
52 29 8
52 30 2
52 31 2
52 32 1
52 33 4
52 34 3
52 35 1
52 36 7
52 37 3
52 38 10
52 39 5
52 40 3
52 41 4
52 42 1
52 43 8
52 44 10
52 45 2
52 46 8
52 47 6
52 48 4
52 49 8
52 50 1
52 51 4
53 0 6
53 1 7
53 2 8
53 3 2
53 4 10
53 5 7
53 6 6
53 7 8
53 8 5
53 9 2
53 10 7
53 11 3
53 12 2
53 13 9
53 14 10
53 15 4
53 16 7
53 17 3
53 18 4
53 19 5
53 20 4
53 21 3
53 22 5
53 23 2
53 24 2
53 25 5
53 26 6
53 27 8
53 28 5
53 29 6
53 30 5
53 31 8
53 32 9
53 33 4
53 34 10
53 35 4
53 36 5
53 37 6
53 38 7
53 39 7
53 40 10
53 41 4
53 42 5
53 43 4
53 44 2
53 45 9
53 46 9
53 47 6
53 48 2
53 49 7
53 50 10
53 51 9
53 52 8
54 0 9
54 1 4
54 2 10
54 3 5
54 4 1
54 5 1
54 6 4
54 7 10
54 8 9
54 9 8
54 10 4
54 11 9
54 12 10
54 13 7
54 14 4
54 15 4
54 16 4
54 17 9
54 18 6
54 19 10
54 20 9
54 21 4
54 22 4
54 23 10
54 24 3
54 25 8
54 26 4
54 27 9
54 28 9
54 29 1
54 30 1
54 31 1
54 32 10
54 33 9
54 34 4
54 35 4
54 36 6
54 37 8
54 38 7
54 39 4
54 40 4
54 41 1
54 42 5
54 43 6
54 44 8
54 45 3
54 46 8
54 47 3
54 48 2
54 49 9
54 50 6
54 51 5
54 52 8
54 53 6
55 0 7
55 1 6
55 2 8
55 3 6
55 4 6
55 5 8
55 6 4
55 7 4
55 8 4
55 9 5
55 10 9
55 11 9
55 12 10
55 13 10
55 14 5
55 15 10
55 16 10
55 17 2
55 18 7
55 19 5
55 20 6
55 21 1
55 22 10
55 23 5
55 24 2
55 25 2
55 26 1
55 27 3
55 28 3
55 29 8
55 30 6
55 31 3
55 32 1
55 33 10
55 34 6
55 35 3
55 36 7
55 37 1
55 38 5
55 39 6
55 40 5
55 41 8
55 42 5
55 43 3
55 44 10
55 45 7
55 46 8
55 47 8
55 48 10
55 49 10
55 50 6
55 51 2
55 52 2
55 53 2
55 54 1
56 0 6
56 1 9
56 2 4
56 3 1
56 4 10
56 5 7
56 6 10
56 7 2
56 8 8
56 9 10
56 10 1
56 11 1
56 12 8
56 13 5
56 14 6
56 15 3
56 16 5
56 17 1
56 18 10
56 19 6
56 20 3
56 21 5
56 22 9
56 23 8
56 24 6
56 25 9
56 26 8
56 27 2
56 28 6
56 29 7
56 30 8
56 31 8
56 32 4
56 33 6
56 34 7
56 35 6
56 36 9
56 37 1
56 38 9
56 39 5
56 40 6
56 41 6
56 42 5
56 43 8
56 44 5
56 45 8
56 46 5
56 47 4
56 48 1
56 49 5
56 50 4
56 51 1
56 52 3
56 53 2
56 54 8
56 55 6
57 0 9
57 1 3
57 2 8
57 3 10
57 4 5
57 5 5
57 6 8
57 7 5
57 8 5
57 9 1
57 10 8
57 11 9
57 12 6
57 13 8
57 14 3
57 15 2
57 16 3
57 17 1
57 18 1
57 19 3
57 20 1
57 21 9
57 22 10
57 23 7
57 24 6
57 25 5
57 26 2
57 27 10
57 28 5
57 29 4
57 30 7
57 31 7
57 32 8
57 33 7
57 34 10
57 35 9
57 36 3
57 37 1
57 38 9
57 39 10
57 40 6
57 41 8
57 42 1
57 43 4
57 44 1
57 45 9
57 46 3
57 47 3
57 48 2
57 49 7
57 50 5
57 51 8
57 52 2
57 53 8
57 54 10
57 55 3
57 56 2
58 0 8
58 1 2
58 2 7
58 3 5
58 4 9
58 5 9
58 6 10
58 7 7
58 8 6
58 9 7
58 10 9
58 11 10
58 12 6
58 13 6
58 14 4
58 15 3
58 16 3
58 17 2
58 18 7
58 19 3
58 20 6
58 21 10
58 22 7
58 23 2
58 24 9
58 25 2
58 26 9
58 27 9
58 28 9
58 29 7
58 30 3
58 31 1
58 32 9
58 33 10
58 34 8
58 35 7
58 36 4
58 37 5
58 38 9
58 39 9
58 40 4
58 41 9
58 42 5
58 43 6
58 44 6
58 45 8
58 46 1
58 47 7
58 48 5
58 49 6
58 50 4
58 51 10
58 52 10
58 53 3
58 54 10
58 55 10
58 56 6
58 57 5
59 0 10
59 1 6
59 2 7
59 3 2
59 4 4
59 5 10
59 6 4
59 7 6
59 8 1
59 9 8
59 10 10
59 11 7
59 12 5
59 13 5
59 14 9
59 15 7
59 16 8
59 17 1
59 18 3
59 19 7
59 20 4
59 21 1
59 22 8
59 23 4
59 24 10
59 25 9
59 26 2
59 27 4
59 28 1
59 29 2
59 30 3
59 31 10
59 32 6
59 33 3
59 34 8
59 35 4
59 36 5
59 37 1
59 38 1
59 39 2
59 40 6
59 41 4
59 42 4
59 43 7
59 44 1
59 45 8
59 46 1
59 47 2
59 48 4
59 49 5
59 50 7
59 51 7
59 52 3
59 53 4
59 54 7
59 55 10
59 56 3
59 57 1
59 58 10
60 0 5
60 1 9
60 2 5
60 3 1
60 4 3
60 5 7
60 6 7
60 7 6
60 8 5
60 9 2
60 10 1
60 11 3
60 12 9
60 13 8
60 14 4
60 15 2
60 16 1
60 17 5
60 18 1
60 19 8
60 20 2
60 21 10
60 22 4
60 23 10
60 24 2
60 25 6
60 26 4
60 27 1
60 28 6
60 29 1
60 30 9
60 31 7
60 32 4
60 33 9
60 34 10
60 35 2
60 36 8
60 37 1
60 38 8
60 39 2
60 40 5
60 41 9
60 42 7
60 43 7
60 44 1
60 45 8
60 46 2
60 47 10
60 48 2
60 49 3
60 50 1
60 51 3
60 52 6
60 53 3
60 54 8
60 55 4
60 56 10
60 57 5
60 58 7
60 59 1
61 0 10
61 1 10
61 2 4
61 3 6
61 4 3
61 5 9
61 6 1
61 7 5
61 8 3
61 9 5
61 10 10
61 11 10
61 12 2
61 13 10
61 14 5
61 15 7
61 16 6
61 17 3
61 18 8
61 19 4
61 20 6
61 21 8
61 22 1
61 23 8
61 24 5
61 25 9
61 26 2
61 27 5
61 28 3
61 29 10
61 30 8
61 31 2
61 32 3
61 33 7
61 34 10
61 35 7
61 36 5
61 37 4
61 38 9
61 39 5
61 40 2
61 41 6
61 42 7
61 43 2
61 44 5
61 45 8
61 46 1
61 47 7
61 48 7
61 49 4
61 50 10
61 51 7
61 52 1
61 53 4
61 54 8
61 55 6
61 56 1
61 57 1
61 58 2
61 59 3
61 60 9
62 0 2
62 1 5
62 2 1
62 3 4
62 4 3
62 5 4
62 6 6
62 7 6
62 8 9
62 9 1
62 10 6
62 11 1
62 12 1
62 13 9
62 14 6
62 15 2
62 16 1
62 17 6
62 18 1
62 19 4
62 20 7
62 21 4
62 22 3
62 23 10
62 24 8
62 25 10
62 26 2
62 27 4
62 28 5
62 29 9
62 30 6
62 31 2
62 32 1
62 33 2
62 34 7
62 35 5
62 36 1
62 37 9
62 38 7
62 39 8
62 40 7
62 41 3
62 42 1
62 43 5
62 44 2
62 45 8
62 46 1
62 47 10
62 48 9
62 49 3
62 50 1
62 51 4
62 52 5
62 53 9
62 54 3
62 55 2
62 56 7
62 57 4
62 58 1
62 59 9
62 60 5
62 61 1
63 0 7
63 1 10
63 2 9
63 3 3
63 4 3
63 5 4
63 6 2
63 7 1
63 8 2
63 9 2
63 10 3
63 11 4
63 12 7
63 13 2
63 14 5
63 15 8
63 16 6
63 17 4
63 18 9
63 19 2
63 20 7
63 21 8
63 22 1
63 23 5
63 24 7
63 25 5
63 26 5
63 27 8
63 28 8
63 29 7
63 30 10
63 31 4
63 32 1
63 33 3
63 34 3
63 35 3
63 36 2
63 37 4
63 38 1
63 39 1
63 40 6
63 41 3
63 42 8
63 43 1
63 44 1
63 45 2
63 46 3
63 47 6
63 48 5
63 49 2
63 50 4
63 51 1
63 52 1
63 53 4
63 54 7
63 55 6
63 56 3
63 57 4
63 58 2
63 59 2
63 60 9
63 61 3
63 62 3
64 0 1
64 1 2
64 2 3
64 3 6
64 4 4
64 5 1
64 6 4
64 7 5
64 8 1
64 9 7
64 10 2
64 11 1
64 12 9
64 13 6
64 14 2
64 15 6
64 16 5
64 17 2
64 18 3
64 19 7
64 20 6
64 21 4
64 22 7
64 23 9
64 24 10
64 25 10
64 26 8
64 27 7
64 28 1
64 29 4
64 30 8
64 31 5
64 32 9
64 33 9
64 34 8
64 35 6
64 36 6
64 37 10
64 38 5
64 39 1
64 40 3
64 41 4
64 42 5
64 43 4
64 44 4
64 45 3
64 46 5
64 47 3
64 48 3
64 49 3
64 50 3
64 51 10
64 52 4
64 53 10
64 54 3
64 55 6
64 56 4
64 57 10
64 58 4
64 59 5
64 60 8
64 61 6
64 62 9
64 63 10
65 0 4
65 1 2
65 2 6
65 3 2
65 4 4
65 5 7
65 6 6
65 7 5
65 8 4
65 9 5
65 10 8
65 11 3
65 12 2
65 13 7
65 14 3
65 15 8
65 16 7
65 17 5
65 18 2
65 19 8
65 20 5
65 21 7
65 22 9
65 23 1
65 24 4
65 25 10
65 26 8
65 27 6
65 28 10
65 29 5
65 30 7
65 31 7
65 32 10
65 33 9
65 34 9
65 35 1
65 36 2
65 37 6
65 38 8
65 39 9
65 40 2
65 41 4
65 42 6
65 43 4
65 44 5
65 45 6
65 46 8
65 47 2
65 48 5
65 49 9
65 50 9
65 51 8
65 52 2
65 53 2
65 54 5
65 55 5
65 56 5
65 57 1
65 58 7
65 59 9
65 60 5
65 61 9
65 62 7
65 63 3
65 64 2
66 0 5
66 1 1
66 2 2
66 3 2
66 4 3
66 5 7
66 6 10
66 7 4
66 8 4
66 9 4
66 10 4
66 11 7
66 12 8
66 13 3
66 14 3
66 15 4
66 16 3
66 17 2
66 18 4
66 19 1
66 20 7
66 21 3
66 22 7
66 23 3
66 24 10
66 25 10
66 26 10
66 27 2
66 28 4
66 29 2
66 30 7
66 31 7
66 32 4
66 33 10
66 34 10
66 35 10
66 36 10
66 37 5
66 38 10
66 39 2
66 40 8
66 41 3
66 42 2
66 43 2
66 44 2
66 45 3
66 46 5
66 47 6
66 48 10
66 49 10
66 50 5
66 51 10
66 52 3
66 53 7
66 54 5
66 55 9
66 56 7
66 57 10
66 58 9
66 59 1
66 60 8
66 61 6
66 62 3
66 63 5
66 64 8
66 65 4
67 0 10
67 1 9
67 2 8
67 3 8
67 4 1
67 5 1
67 6 3
67 7 4
67 8 2
67 9 8
67 10 3
67 11 1
67 12 10
67 13 6
67 14 2
67 15 3
67 16 8
67 17 10
67 18 3
67 19 1
67 20 10
67 21 7
67 22 8
67 23 3
67 24 5
67 25 8
67 26 1
67 27 10
67 28 2
67 29 3
67 30 3
67 31 6
67 32 8
67 33 2
67 34 6
67 35 2
67 36 4
67 37 2
67 38 6
67 39 1
67 40 4
67 41 6
67 42 10
67 43 3
67 44 5
67 45 6
67 46 3
67 47 6
67 48 1
67 49 6
67 50 2
67 51 5
67 52 5
67 53 10
67 54 4
67 55 5
67 56 2
67 57 2
67 58 7
67 59 9
67 60 8
67 61 3
67 62 9
67 63 9
67 64 5
67 65 5
67 66 2
68 0 3
68 1 1
68 2 1
68 3 2
68 4 6
68 5 1
68 6 5
68 7 1
68 8 5
68 9 3
68 10 5
68 11 8
68 12 10
68 13 3
68 14 2
68 15 7
68 16 3
68 17 9
68 18 6
68 19 5
68 20 8
68 21 1
68 22 9
68 23 4
68 24 1
68 25 8
68 26 5
68 27 10
68 28 9
68 29 3
68 30 2
68 31 10
68 32 8
68 33 7
68 34 6
68 35 2
68 36 1
68 37 10
68 38 10
68 39 10
68 40 10
68 41 4
68 42 1
68 43 3
68 44 2
68 45 4
68 46 6
68 47 4
68 48 8
68 49 3
68 50 5
68 51 3
68 52 6
68 53 7
68 54 5
68 55 9
68 56 10
68 57 6
68 58 2
68 59 6
68 60 3
68 61 4
68 62 5
68 63 3
68 64 8
68 65 10
68 66 4
68 67 6
69 0 8
69 1 5
69 2 7
69 3 5
69 4 4
69 5 4
69 6 4
69 7 2
69 8 8
69 9 1
69 10 1
69 11 2
69 12 1
69 13 2
69 14 6
69 15 8
69 16 3
69 17 5
69 18 5
69 19 8
69 20 7
69 21 2
69 22 6
69 23 7
69 24 4
69 25 5
69 26 8
69 27 3
69 28 7
69 29 8
69 30 2
69 31 10
69 32 1
69 33 4
69 34 10
69 35 2
69 36 5
69 37 4
69 38 3
69 39 4
69 40 5
69 41 3
69 42 5
69 43 2
69 44 4
69 45 3
69 46 3
69 47 7
69 48 6
69 49 10
69 50 6
69 51 5
69 52 8
69 53 3
69 54 1
69 55 1
69 56 9
69 57 4
69 58 4
69 59 7
69 60 6
69 61 2
69 62 3
69 63 8
69 64 10
69 65 4
69 66 10
69 67 4
69 68 5
70 0 1
70 1 5
70 2 7
70 3 10
70 4 2
70 5 6
70 6 3
70 7 10
70 8 1
70 9 1
70 10 8
70 11 7
70 12 10
70 13 9
70 14 6
70 15 2
70 16 9
70 17 8
70 18 8
70 19 5
70 20 7
70 21 5
70 22 2
70 23 4
70 24 5
70 25 4
70 26 10
70 27 6
70 28 3
70 29 7
70 30 6
70 31 1
70 32 1
70 33 1
70 34 6
70 35 5
70 36 5
70 37 9
70 38 6
70 39 5
70 40 9
70 41 5
70 42 7
70 43 5
70 44 3
70 45 7
70 46 3
70 47 10
70 48 8
70 49 3
70 50 1
70 51 6
70 52 6
70 53 10
70 54 1
70 55 8
70 56 9
70 57 10
70 58 6
70 59 2
70 60 1
70 61 9
70 62 3
70 63 7
70 64 10
70 65 6
70 66 2
70 67 5
70 68 1
70 69 10
71 0 5
71 1 1
71 2 4
71 3 3
71 4 10
71 5 6
71 6 5
71 7 2
71 8 9
71 9 3
71 10 3
71 11 10
71 12 7
71 13 7
71 14 3
71 15 4
71 16 4
71 17 8
71 18 9
71 19 10
71 20 8
71 21 6
71 22 8
71 23 2
71 24 3
71 25 7
71 26 3
71 27 8
71 28 2
71 29 4
71 30 9
71 31 10
71 32 10
71 33 8
71 34 10
71 35 5
71 36 7
71 37 4
71 38 6
71 39 3
71 40 7
71 41 8
71 42 3
71 43 3
71 44 10
71 45 7
71 46 9
71 47 3
71 48 10
71 49 5
71 50 4
71 51 8
71 52 9
71 53 9
71 54 2
71 55 9
71 56 10
71 57 4
71 58 2
71 59 2
71 60 5
71 61 2
71 62 7
71 63 2
71 64 5
71 65 2
71 66 8
71 67 10
71 68 3
71 69 7
71 70 5
72 0 8
72 1 6
72 2 9
72 3 9
72 4 6
72 5 10
72 6 6
72 7 9
72 8 6
72 9 3
72 10 4
72 11 7
72 12 6
72 13 8
72 14 9
72 15 4
72 16 2
72 17 4
72 18 4
72 19 9
72 20 6
72 21 8
72 22 8
72 23 2
72 24 4
72 25 5
72 26 9
72 27 6
72 28 10
72 29 5
72 30 2
72 31 1
72 32 6
72 33 4
72 34 5
72 35 5
72 36 4
72 37 7
72 38 1
72 39 10
72 40 2
72 41 5
72 42 5
72 43 10
72 44 8
72 45 8
72 46 3
72 47 7
72 48 9
72 49 1
72 50 6
72 51 5
72 52 1
72 53 1
72 54 5
72 55 2
72 56 3
72 57 3
72 58 6
72 59 5
72 60 9
72 61 3
72 62 3
72 63 2
72 64 9
72 65 2
72 66 8
72 67 9
72 68 10
72 69 2
72 70 6
72 71 5
73 0 6
73 1 6
73 2 6
73 3 2
73 4 6
73 5 1
73 6 7
73 7 8
73 8 6
73 9 9
73 10 3
73 11 8
73 12 2
73 13 1
73 14 6
73 15 3
73 16 3
73 17 1
73 18 6
73 19 4
73 20 8
73 21 2
73 22 8
73 23 1
73 24 4
73 25 2
73 26 8
73 27 5
73 28 7
73 29 7
73 30 3
73 31 3
73 32 2
73 33 1
73 34 5
73 35 2
73 36 5
73 37 6
73 38 1
73 39 9
73 40 9
73 41 5
73 42 7
73 43 5
73 44 1
73 45 6
73 46 9
73 47 9
73 48 9
73 49 7
73 50 2
73 51 9
73 52 4
73 53 7
73 54 1
73 55 3
73 56 1
73 57 1
73 58 7
73 59 6
73 60 1
73 61 1
73 62 3
73 63 3
73 64 6
73 65 2
73 66 6
73 67 2
73 68 8
73 69 4
73 70 3
73 71 3
73 72 6
74 0 9
74 1 5
74 2 3
74 3 9
74 4 5
74 5 7
74 6 6
74 7 8
74 8 1
74 9 7
74 10 8
74 11 1
74 12 9
74 13 8
74 14 10
74 15 10
74 16 2
74 17 3
74 18 10
74 19 3
74 20 2
74 21 2
74 22 10
74 23 7
74 24 8
74 25 9
74 26 4
74 27 8
74 28 8
74 29 10
74 30 6
74 31 6
74 32 6
74 33 5
74 34 3
74 35 4
74 36 2
74 37 3
74 38 6
74 39 1
74 40 9
74 41 7
74 42 7
74 43 5
74 44 10
74 45 2
74 46 10
74 47 7
74 48 5
74 49 7
74 50 10
74 51 4
74 52 2
74 53 4
74 54 6
74 55 6
74 56 7
74 57 6
74 58 9
74 59 8
74 60 3
74 61 3
74 62 2
74 63 7
74 64 5
74 65 7
74 66 8
74 67 6
74 68 4
74 69 7
74 70 3
74 71 2
74 72 6
74 73 2
